p cnf 162 124
c p distribution  0.875 0.125
c p distribution  0.875 0.125
c p distribution  0.875 0.125
c p distribution  0.875 0.125
c p distribution  0.875 0.125
c p distribution  0.875 0.125
c p distribution  0.875 0.125
c p distribution  0.875 0.125
c p distribution  0.875 0.125
c p distribution  0.875 0.125
c p distribution  0.875 0.125
c p distribution  0.875 0.125
c p distribution  0.875 0.125
c p distribution  0.875 0.125
c p distribution  0.875 0.125
c p distribution  0.875 0.125
c p distribution  0.875 0.125
c p distribution  0.875 0.125
c p distribution  0.875 0.125
c p distribution  0.875 0.125
c p distribution  0.875 0.125
c p distribution  0.875 0.125
c p distribution  0.875 0.125
c p distribution  0.875 0.125
c p distribution  0.875 0.125
c p distribution  0.875 0.125
c p distribution  0.875 0.125
c p distribution  0.875 0.125
c p distribution  0.875 0.125
c p distribution  0.875 0.125
c p distribution  0.875 0.125
c p distribution  0.875 0.125
c p distribution  0.875 0.125
c p distribution  0.875 0.125
c p distribution  0.875 0.125
c p distribution  0.875 0.125
c p distribution  0.875 0.125
c p distribution  0.875 0.125
c p distribution  0.875 0.125
c p distribution  0.875 0.125
c p distribution  0.875 0.125
c p distribution  0.875 0.125
c p distribution  0.875 0.125
c p distribution  0.875 0.125
c p distribution  0.875 0.125
c p distribution  0.875 0.125
c p distribution  0.875 0.125
c p distribution  0.875 0.125
c p distribution  0.875 0.125
c p distribution  0.875 0.125
c p distribution  0.875 0.125
c p distribution  0.875 0.125
c p distribution  0.875 0.125
c p distribution  0.875 0.125
c p distribution  0.875 0.125
c p distribution  0.875 0.125
c p distribution  0.875 0.125
c p distribution  0.875 0.125
c p distribution  0.875 0.125
c p distribution  0.875 0.125
c p distribution  0.875 0.125
155 0
-161 0
125 -124 -1 0
124 -125 -1 0
143 -151 -3 0
151 -143 -3 0
156 -135 -5 0
135 -156 -5 0
145 -142 -7 0
142 -145 -7 0
155 -147 -9 0
147 -155 -9 0
125 -156 -11 0
156 -125 -11 0
138 -135 -13 0
135 -138 -13 0
134 -161 -15 0
161 -134 -15 0
148 -155 -17 0
155 -148 -17 0
137 -143 -19 0
143 -137 -19 0
130 -162 -21 0
162 -130 -21 0
136 -124 -23 0
124 -136 -23 0
130 -136 -25 0
136 -130 -25 0
153 -135 -27 0
135 -153 -27 0
131 -142 -29 0
142 -131 -29 0
160 -157 -31 0
157 -160 -31 0
138 -153 -33 0
153 -138 -33 0
144 -141 -35 0
141 -144 -35 0
149 -151 -37 0
151 -149 -37 0
134 -161 -39 0
161 -134 -39 0
149 -154 -41 0
154 -149 -41 0
131 -162 -43 0
162 -131 -43 0
126 -129 -45 0
129 -126 -45 0
138 -153 -47 0
153 -138 -47 0
127 -128 -49 0
128 -127 -49 0
162 -149 -51 0
149 -162 -51 0
145 -157 -53 0
157 -145 -53 0
123 -124 -55 0
124 -123 -55 0
134 -129 -57 0
129 -134 -57 0
126 -134 -59 0
134 -126 -59 0
139 -159 -61 0
159 -139 -61 0
161 -146 -63 0
146 -161 -63 0
152 -136 -65 0
136 -152 -65 0
133 -150 -67 0
150 -133 -67 0
160 -157 -69 0
157 -160 -69 0
161 -146 -71 0
146 -161 -71 0
148 -150 -73 0
150 -148 -73 0
152 -130 -75 0
130 -152 -75 0
151 -154 -77 0
154 -151 -77 0
131 -127 -79 0
127 -131 -79 0
131 -156 -81 0
156 -131 -81 0
160 -158 -83 0
158 -160 -83 0
158 -127 -85 0
127 -158 -85 0
144 -141 -87 0
141 -144 -87 0
124 -123 -89 0
123 -124 -89 0
160 -157 -91 0
157 -160 -91 0
137 -147 -93 0
147 -137 -93 0
154 -139 -95 0
139 -154 -95 0
126 -130 -97 0
130 -126 -97 0
141 -146 -99 0
146 -141 -99 0
160 -158 -101 0
158 -160 -101 0
134 -132 -103 0
132 -134 -103 0
126 -162 -105 0
162 -126 -105 0
144 -132 -107 0
132 -144 -107 0
140 -162 -109 0
162 -140 -109 0
142 -154 -111 0
154 -142 -111 0
141 -146 -113 0
146 -141 -113 0
140 -149 -115 0
149 -140 -115 0
147 -139 -117 0
139 -147 -117 0
137 -155 -119 0
155 -137 -119 0
160 -157 -121 0
157 -160 -121 0

